Version identifier: 22.1.0.0 | 2022-03-09 | 1a383f8ce
CPXPARAM_Threads                                 1
CPXPARAM_MIP_Strategy_VariableSelect             3
CPXPARAM_TimeLimit                               599.99313009699995
Tried aggregator 1 time.
MIP Presolve eliminated 13 rows and 0 columns.
MIP Presolve modified 4 coefficients.
Reduced MIP has 1812 rows, 7500 columns, and 91944 nonzeros.
Reduced MIP has 7500 binaries, 0 generals, 0 SOSs, and 0 indicators.
Presolve time = 0.05 sec. (39.93 ticks)
Probing time = 0.01 sec. (6.80 ticks)
Tried aggregator 1 time.
Detecting symmetries...
Reduced MIP has 1812 rows, 7500 columns, and 91944 nonzeros.
Reduced MIP has 7500 binaries, 0 generals, 0 SOSs, and 0 indicators.
Presolve time = 0.06 sec. (49.82 ticks)
Probing time = 0.01 sec. (6.80 ticks)
Clique table members: 602.
MIP emphasis: balance optimality and feasibility.
MIP search method: dynamic search.
Parallel mode: none, using 1 thread.
Root relaxation solution time = 1.00 sec. (1032.65 ticks)

        Nodes                                         Cuts/
   Node  Left     Objective  IInf  Best Integer    Best Bound    ItCnt     Gap

      0     0        0.0000  1104                      0.0000     4032         
*     0+    0                            0.0000        0.0000             0.00%
      0     0        cutoff              0.0000        0.0000     4032    0.00%
Elapsed time = 5.96 sec. (6764.81 ticks, tree = 0.01 MB, solutions = 1)

Root node processing (before b&c):
  Real time             =    5.97 sec. (6765.03 ticks)
Sequential b&c:
  Real time             =    0.00 sec. (0.00 ticks)
                          ------------
Total (root+branch&cut) =    5.97 sec. (6765.03 ticks)
Primal:	300
Dual:	300
Status:	Optimal
Time:	6.01315
Sequence:
	20
	22
	21
	12
	2
	10
	24
	14
	8
	21
	13
	7
	9
	21
	12
	6
	2
	14
	24
	14
	2
	10
	16
	6
	8
	6
	16
	10
	9
	21
	13
	15
	13
	5
	13
	11
	16
	6
	16
	22
	6
	16
	23
	15
	13
	23
	17
	13
	17
	24
	20
	16
	9
	14
	13
	6
	8
	14
	13
	10
	22
	19
	21
	13
	11
	23
	21
	16
	9
	20
	24
	15
	16
	20
	24
	1
	19
	14
	24
	11
	2
	21
	16
	10
	9
	5
	13
	14
	2
	21
	24
	0
	15
	24
	14
	13
	11
	19
	10
	19
	11
	13
	21
	2
	14
	23
	6
	3
	14
	13
	10
	2
	16
	21
	13
	11
	13
	14
	19
	11
	24
	14
	13
	3
	10
	16
	6
	22
	21
	23
	14
	9
	10
	19
	23
	17
	13
	12
	10
	2
	14
	13
	5
	2
	10
	12
	6
	8
	10
	19
	10
	22
	21
	13
	14
	2
	10
	16
	24
	15
	23
	7
	12
	18
	16
	7
	23
	17
	24
	14
	13
	11
	16
	13
	15
	23
	24
	16
	11
	19
	20
	22
	21
	23
	17
	13
	10
	19
	11
	16
	7
	16
	11
	13
	12
	6
	8
	6
	16
	10
	2
	14
	13
	21
	9
	6
	16
	11
	19
	20
	9
	21
	13
	17
	13
	21
	24
	11
	16
	6
	16
	11
	13
	4
	16
	11
	24
	7
	16
	15
	23
	20
	24
	15
	16
	10
	24
	11
	16
	21
	13
	1
	13
	21
	16
	1
	9
	21
	13
	8
	20
	24
	21
	9
	14
	23
	21
	9
	10
	19
	11
	12
	6
	13
	17
	24
	14
	22
	6
	12
	13
	17
	13
	10
	19
	22
	14
	24
	11
	19
	16
	10
	9
	20
	16
	15
	24
	14
	13
	11
	16
	7
	16
	11
	24
	14
	9
	16
	10
	13
